291,406
225,554
387,257
885,6
630,81
436,-75
769,420
766,433
769,420
749,539
817,673
814,474
799,424
975,257
1069,124
765,322
716,454
624,424
307,596
575,512
764,662
630,731
559,646
838,891
1062,787
910,721
838,891
749,539
766,433
799,424
1108,189
975,257
622,415
624,424
716,454
